Instance name:    lrc102.txt
Authors:          PDPTW Solver
Date:             2026-01-15
Reference:        LNS with SA/RTR
Solution: 0;12;1558.069;60.00 s
Route 1 :  2 45 1 3 5 8 101 6 46 4 60 98
Route 2 :  42 61 81 90 68 54 96 106
Route 3 :  65 83 19 23 48 18 21 25 77 105
Route 4 :  14 47 15 16 9 87 97 75 102 58
Route 5 :  36 44 40 38 41 43 35 37 72 104
Route 6 :  82 11 73 79 7 55 100 70
Route 7 :  69 88 53 78 10 13 17 12
Route 8 :  91 64 99 86 57 74 59 52
Route 9 :  33 28 27 26 31 34 50 93 94 80
Route 10 :  92 95 62 29 30 32 103 89
Route 11 :  85 63 76 51 22 49 20 24
Route 12 :  39 71 67 84 56 66
